1955162
10,14,81,57,26,34,66,45,27,58,89,33,70,64,18,83,25,93,16,42,72,6,24,94,67,36,79,35,3,80,13,85,37,75,12,61,90,2,88,7,52,48,29,9,5,55,17,40,54,43,71,19,8,0,87,86,44,98,62,59,30,92,96,84,15,60,82,49,1,63,4,41,74,68,76,95,20,73,69,46,32,56,31,47,65,21,28,78,77,11,50,39,23,22,51,38,91,53,97
